NAME: test1994
TYPE: TSP
DIMENSION: 11
EDGE_WEIGHT_TYPE: EUC_2D
NODE_COORD_SECTION
1 57.26638465240613 73.11515522485212
2 94.31161028937157 62.605584095263325
3 63.84321434034634 58.48816061313481
4 55.45368906577537 74.81396649264471
5 3.8380372391317086 69.27963979876337
6 86.465405158538 59.84962708758719
7 12.271930827134891 76.91786770348207
8 2.974350047120944 51.78129081105468
9 94.12468316459059 86.67380166423085
10 4.969773480843509 45.44434333771049
11 17.155930194857493 97.36542303469898
EOF
